benchmarks_CP/INST_64x64/50/inst64x64_50_11.dzn
S=8;
start=[|
51,	-1,	26,	-1,	-1,	-1,	42,	-1,	41,	43,	53,	29,	-1,	15,	-1,	10,	-1,	-1,	54,	28,	-1,	38,	-1,	23,	3,	9,	27,	-1,	56,	-1,	58,	-1,	-1,	16,	-1,	-1,	47,	46,	-1,	48,	4,	-1,	-1,	35,	14,	30,	49,	45,	44,	33,	62,	39,	22,	-1,	1,	6,	-1,	-1,	17,	21,	34,	18,	-1,	-1|
17,	34,	-1,	56,	31,	-1,	22,	14,	-1,	-1,	38,	-1,	26,	1,	33,	-1,	-1,	-1,	-1,	8,	-1,	-1,	-1,	41,	-1,	-1,	61,	-1,	-1,	-1,	-1,	45,	55,	57,	37,	-1,	-1,	6,	-1,	-1,	46,	-1,	29,	2,	-1,	-1,	-1,	24,	-1,	-1,	-1,	32,	-1,	10,	40,	-1,	-1,	-1,	62,	19,	-1,	39,	-1,	-1|
-1,	50,	47,	35,	-1,	32,	-1,	28,	-1,	9,	48,	-1,	45,	17,	57,	19,	-1,	24,	-1,	-1,	-1,	-1,	55,	-1,	40,	30,	11,	-1,	-1,	36,	2,	54,	-1,	27,	-1,	-1,	-1,	62,	-1,	34,	-1,	26,	3,	-1,	-1,	31,	22,	38,	-1,	64,	25,	15,	-1,	-1,	13,	-1,	-1,	1,	5,	16,	37,	-1,	29,	-1|
-1,	58,	33,	-1,	46,	-1,	-1,	1,	-1,	-1,	11,	-1,	-1,	-1,	-1,	-1,	27,	20,	-1,	36,	-1,	9,	-1,	-1,	52,	-1,	-1,	-1,	-1,	5,	-1,	-1,	-1,	56,	-1,	-1,	19,	-1,	40,	61,	64,	-1,	-1,	39,	-1,	44,	-1,	-1,	-1,	17,	-1,	-1,	38,	-1,	-1,	-1,	-1,	-1,	43,	32,	-1,	-1,	25,	-1|
9,	21,	-1,	-1,	-1,	10,	-1,	-1,	59,	-1,	-1,	44,	-1,	-1,	-1,	6,	47,	61,	-1,	-1,	45,	3,	-1,	-1,	37,	20,	18,	34,	63,	48,	-1,	50,	-1,	-1,	22,	2,	33,	23,	-1,	53,	25,	-1,	52,	51,	-1,	-1,	17,	42,	-1,	16,	57,	-1,	-1,	19,	-1,	28,	-1,	8,	-1,	27,	-1,	46,	54,	38|
27,	4,	-1,	23,	-1,	25,	18,	57,	-1,	47,	-1,	8,	-1,	-1,	64,	-1,	12,	-1,	-1,	59,	-1,	-1,	-1,	-1,	33,	-1,	-1,	-1,	-1,	1,	16,	26,	-1,	43,	-1,	-1,	-1,	-1,	-1,	44,	-1,	-1,	60,	-1,	40,	-1,	55,	54,	21,	-1,	-1,	-1,	-1,	-1,	-1,	14,	52,	-1,	-1,	2,	-1,	-1,	-1,	41|
-1,	5,	49,	38,	-1,	41,	43,	7,	-1,	27,	-1,	3,	34,	24,	-1,	-1,	-1,	40,	-1,	17,	-1,	-1,	-1,	-1,	64,	28,	-1,	-1,	-1,	19,	13,	-1,	42,	26,	-1,	-1,	54,	-1,	18,	11,	16,	-1,	10,	48,	-1,	56,	23,	20,	-1,	9,	50,	-1,	-1,	2,	-1,	-1,	15,	59,	-1,	-1,	47,	-1,	-1,	36|
3,	-1,	53,	-1,	30,	-1,	-1,	40,	-1,	-1,	-1,	23,	18,	37,	21,	-1,	11,	-1,	-1,	31,	22,	-1,	-1,	-1,	-1,	-1,	-1,	46,	10,	-1,	-1,	60,	32,	38,	52,	7,	-1,	-1,	-1,	50,	-1,	-1,	-1,	8,	-1,	-1,	-1,	-1,	5,	-1,	-1,	-1,	4,	-1,	-1,	-1,	-1,	33,	45,	-1,	-1,	-1,	14,	-1|
45,	-1,	50,	-1,	57,	58,	-1,	11,	16,	8,	46,	-1,	37,	63,	-1,	13,	39,	2,	35,	-1,	-1,	15,	28,	38,	-1,	-1,	29,	-1,	-1,	51,	-1,	-1,	59,	48,	-1,	24,	-1,	-1,	-1,	6,	30,	-1,	49,	64,	27,	-1,	-1,	-1,	23,	41,	-1,	-1,	-1,	33,	-1,	17,	34,	32,	52,	-1,	9,	40,	47,	22|
21,	-1,	-1,	6,	-1,	47,	-1,	42,	9,	12,	-1,	-1,	57,	39,	-1,	-1,	-1,	-1,	-1,	-1,	46,	14,	-1,	-1,	-1,	-1,	33,	64,	52,	-1,	50,	-1,	-1,	-1,	-1,	-1,	-1,	-1,	-1,	56,	18,	17,	-1,	62,	13,	35,	40,	-1,	-1,	32,	44,	20,	-1,	16,	-1,	5,	-1,	-1,	36,	55,	-1,	7,	-1,	-1|
44,	60,	-1,	14,	36,	-1,	32,	15,	-1,	18,	-1,	-1,	51,	-1,	52,	-1,	-1,	-1,	-1,	-1,	-1,	19,	8,	56,	47,	16,	-1,	27,	-1,	-1,	-1,	58,	5,	-1,	-1,	-1,	50,	-1,	22,	10,	61,	63,	-1,	46,	57,	7,	-1,	-1,	11,	-1,	53,	30,	64,	-1,	28,	-1,	49,	-1,	-1,	59,	-1,	-1,	33,	12|
28,	-1,	9,	25,	4,	7,	-1,	2,	-1,	-1,	5,	56,	-1,	-1,	-1,	-1,	24,	31,	-1,	52,	-1,	-1,	42,	60,	-1,	-1,	62,	53,	49,	-1,	21,	-1,	43,	23,	19,	-1,	51,	-1,	-1,	-1,	-1,	-1,	34,	6,	10,	-1,	11,	-1,	-1,	-1,	-1,	-1,	37,	-1,	-1,	13,	-1,	35,	26,	-1,	61,	-1,	16,	-1|
12,	27,	-1,	8,	52,	48,	-1,	22,	-1,	38,	7,	-1,	11,	-1,	58,	-1,	49,	25,	-1,	23,	-1,	-1,	-1,	-1,	17,	-1,	45,	-1,	-1,	-1,	-1,	-1,	63,	-1,	-1,	-1,	61,	42,	-1,	-1,	29,	28,	-1,	19,	-1,	-1,	-1,	-1,	-1,	-1,	-1,	36,	-1,	-1,	39,	2,	21,	18,	-1,	56,	41,	24,	50,	31|
-1,	-1,	-1,	53,	13,	-1,	63,	-1,	-1,	-1,	-1,	1,	-1,	49,	30,	-1,	-1,	18,	44,	-1,	-1,	-1,	6,	-1,	-1,	39,	-1,	19,	-1,	-1,	41,	-1,	-1,	-1,	-1,	-1,	-1,	-1,	55,	9,	60,	-1,	59,	-1,	56,	-1,	24,	-1,	-1,	-1,	29,	-1,	48,	22,	12,	51,	57,	-1,	4,	15,	-1,	45,	-1,	62|
61,	37,	46,	49,	-1,	-1,	-1,	16,	64,	-1,	-1,	55,	-1,	44,	-1,	-1,	-1,	-1,	40,	-1,	7,	-1,	-1,	-1,	48,	32,	10,	-1,	22,	28,	20,	9,	-1,	35,	-1,	-1,	-1,	11,	-1,	47,	-1,	58,	38,	-1,	39,	15,	-1,	4,	31,	26,	-1,	-1,	14,	-1,	-1,	3,	-1,	6,	-1,	-1,	-1,	-1,	51,	-1|
41,	-1,	-1,	-1,	-1,	26,	-1,	-1,	17,	61,	21,	19,	-1,	50,	3,	-1,	-1,	-1,	-1,	33,	-1,	58,	-1,	-1,	57,	-1,	43,	-1,	-1,	-1,	-1,	-1,	34,	46,	28,	-1,	49,	64,	-1,	-1,	-1,	25,	-1,	45,	53,	14,	-1,	-1,	-1,	-1,	18,	-1,	15,	-1,	55,	-1,	48,	13,	37,	-1,	39,	5,	-1,	42|
-1,	-1,	56,	-1,	7,	-1,	46,	37,	13,	-1,	28,	20,	16,	-1,	-1,	63,	-1,	45,	59,	-1,	10,	39,	33,	-1,	5,	-1,	-1,	-1,	-1,	-1,	34,	41,	-1,	-1,	11,	23,	-1,	47,	24,	-1,	-1,	-1,	-1,	1,	-1,	-1,	29,	-1,	54,	-1,	-1,	52,	32,	-1,	22,	-1,	-1,	-1,	-1,	26,	-1,	-1,	-1,	-1|
18,	-1,	-1,	62,	-1,	-1,	31,	-1,	45,	-1,	10,	-1,	4,	-1,	32,	36,	-1,	12,	1,	29,	8,	-1,	53,	-1,	-1,	35,	-1,	-1,	-1,	46,	6,	11,	28,	-1,	-1,	56,	-1,	22,	-1,	-1,	-1,	-1,	-1,	44,	26,	-1,	-1,	41,	59,	49,	2,	-1,	-1,	13,	-1,	27,	-1,	47,	-1,	57,	-1,	-1,	3,	15|
55,	10,	-1,	-1,	32,	51,	-1,	-1,	-1,	-1,	35,	-1,	17,	-1,	24,	43,	-1,	-1,	28,	-1,	-1,	5,	-1,	21,	2,	33,	-1,	-1,	27,	-1,	4,	39,	-1,	41,	-1,	57,	44,	-1,	-1,	-1,	-1,	54,	-1,	-1,	-1,	6,	-1,	-1,	25,	7,	48,	-1,	30,	38,	64,	9,	40,	-1,	-1,	62,	29,	37,	-1,	-1|
16,	-1,	-1,	-1,	33,	-1,	-1,	-1,	-1,	-1,	-1,	48,	38,	58,	11,	-1,	51,	62,	47,	30,	-1,	31,	-1,	26,	-1,	-1,	23,	61,	15,	-1,	14,	57,	64,	55,	6,	-1,	18,	-1,	-1,	-1,	-1,	60,	2,	42,	-1,	-1,	-1,	-1,	17,	-1,	1,	-1,	-1,	53,	-1,	-1,	8,	25,	46,	-1,	-1,	36,	9,	-1|
-1,	64,	22,	-1,	-1,	49,	36,	-1,	-1,	29,	-1,	-1,	12,	59,	40,	-1,	-1,	32,	27,	-1,	63,	41,	-1,	-1,	-1,	24,	-1,	-1,	-1,	55,	8,	-1,	-1,	9,	43,	-1,	39,	-1,	-1,	-1,	-1,	-1,	23,	-1,	51,	-1,	30,	-1,	-1,	44,	56,	50,	-1,	3,	21,	37,	42,	-1,	-1,	-1,	31,	-1,	-1,	-1|
39,	43,	6,	-1,	45,	12,	60,	17,	-1,	51,	-1,	-1,	-1,	41,	53,	14,	7,	-1,	-1,	20,	-1,	46,	56,	54,	59,	-1,	47,	-1,	-1,	10,	-1,	28,	-1,	-1,	27,	33,	29,	-1,	30,	-1,	-1,	-1,	-1,	22,	-1,	-1,	-1,	13,	-1,	-1,	35,	55,	-1,	31,	34,	-1,	38,	64,	23,	61,	-1,	11,	-1,	-1|
-1,	48,	-1,	-1,	-1,	-1,	38,	4,	-1,	-1,	-1,	27,	7,	22,	-1,	49,	-1,	-1,	-1,	-1,	-1,	-1,	-1,	55,	-1,	-1,	51,	56,	-1,	9,	29,	-1,	13,	12,	8,	-1,	37,	32,	-1,	-1,	-1,	-1,	64,	31,	15,	62,	-1,	-1,	-1,	-1,	5,	23,	-1,	11,	43,	-1,	39,	-1,	28,	-1,	6,	14,	41,	-1|
-1,	-1,	-1,	9,	8,	-1,	-1,	53,	19,	46,	50,	52,	44,	-1,	-1,	-1,	4,	11,	64,	38,	-1,	13,	-1,	-1,	-1,	-1,	26,	-1,	43,	62,	-1,	1,	35,	31,	58,	-1,	5,	17,	-1,	40,	-1,	56,	45,	24,	-1,	-1,	-1,	-1,	-1,	15,	-1,	-1,	-1,	-1,	57,	41,	2,	22,	49,	54,	16,	-1,	-1,	51|
53,	-1,	18,	-1,	-1,	24,	-1,	-1,	-1,	-1,	-1,	-1,	56,	7,	-1,	28,	55,	-1,	-1,	-1,	4,	-1,	47,	-1,	1,	27,	-1,	-1,	-1,	-1,	-1,	64,	39,	33,	41,	-1,	-1,	21,	-1,	19,	51,	30,	-1,	-1,	52,	46,	-1,	-1,	-1,	-1,	-1,	-1,	-1,	-1,	-1,	31,	-1,	3,	6,	-1,	32,	-1,	43,	-1|
30,	56,	45,	31,	3,	28,	-1,	-1,	-1,	52,	41,	-1,	63,	38,	-1,	-1,	61,	50,	-1,	16,	1,	8,	27,	34,	-1,	-1,	-1,	33,	-1,	29,	59,	-1,	-1,	-1,	-1,	-1,	-1,	-1,	4,	23,	-1,	-1,	26,	-1,	21,	-1,	18,	15,	57,	-1,	64,	-1,	-1,	46,	14,	-1,	-1,	-1,	-1,	-1,	17,	10,	55,	-1|
-1,	51,	-1,	-1,	-1,	5,	2,	-1,	8,	-1,	-1,	11,	49,	-1,	16,	-1,	53,	63,	-1,	37,	-1,	-1,	-1,	-1,	-1,	-1,	-1,	-1,	-1,	-1,	-1,	-1,	-1,	36,	18,	-1,	-1,	-1,	-1,	-1,	-1,	-1,	-1,	12,	50,	54,	56,	-1,	-1,	30,	59,	-1,	41,	-1,	38,	60,	19,	-1,	-1,	33,	-1,	23,	22,	-1|
-1,	-1,	-1,	-1,	38,	60,	-1,	59,	-1,	-1,	24,	-1,	-1,	20,	-1,	-1,	-1,	-1,	-1,	22,	-1,	-1,	39,	-1,	58,	-1,	30,	62,	-1,	53,	45,	-1,	11,	2,	51,	-1,	-1,	14,	-1,	-1,	-1,	31,	6,	23,	42,	47,	43,	7,	19,	13,	-1,	61,	-1,	48,	15,	54,	1,	-1,	50,	12,	49,	35,	27,	-1|
33,	-1,	-1,	19,	37,	-1,	20,	-1,	12,	58,	-1,	-1,	50,	3,	-1,	-1,	-1,	-1,	-1,	42,	-1,	24,	31,	46,	-1,	-1,	41,	-1,	8,	7,	60,	35,	-1,	54,	-1,	6,	-1,	53,	-1,	-1,	-1,	55,	-1,	25,	-1,	-1,	59,	11,	-1,	-1,	-1,	63,	17,	-1,	32,	4,	14,	-1,	16,	5,	48,	34,	18,	52|
-1,	42,	36,	17,	26,	64,	50,	35,	5,	-1,	6,	-1,	-1,	-1,	-1,	-1,	-1,	-1,	-1,	57,	-1,	21,	-1,	-1,	28,	19,	-1,	-1,	14,	-1,	39,	-1,	37,	13,	55,	62,	-1,	40,	49,	-1,	32,	38,	1,	-1,	-1,	-1,	-1,	-1,	-1,	12,	-1,	-1,	-1,	8,	-1,	58,	-1,	-1,	31,	30,	53,	-1,	-1,	-1|
23,	46,	-1,	-1,	-1,	-1,	49,	13,	36,	-1,	39,	-1,	-1,	-1,	-1,	1,	10,	-1,	-1,	-1,	-1,	59,	30,	52,	54,	44,	12,	-1,	-1,	-1,	-1,	-1,	-1,	50,	25,	3,	15,	-1,	38,	8,	63,	14,	35,	57,	64,	41,	-1,	40,	7,	21,	28,	53,	24,	-1,	33,	56,	37,	2,	47,	-1,	58,	-1,	45,	-1|
14,	-1,	1,	-1,	55,	-1,	-1,	21,	54,	35,	-1,	47,	31,	45,	19,	-1,	-1,	-1,	-1,	-1,	62,	33,	-1,	48,	46,	17,	16,	50,	18,	15,	-1,	-1,	52,	34,	-1,	60,	-1,	-1,	5,	-1,	53,	-1,	-1,	13,	-1,	27,	44,	-1,	37,	43,	36,	-1,	3,	6,	11,	23,	-1,	51,	-1,	8,	59,	-1,	-1,	26|
62,	17,	-1,	-1,	-1,	37,	23,	-1,	-1,	-1,	-1,	-1,	15,	-1,	-1,	41,	-1,	-1,	-1,	-1,	-1,	43,	-1,	30,	-1,	38,	-1,	-1,	39,	-1,	-1,	-1,	-1,	-1,	-1,	-1,	-1,	-1,	9,	18,	14,	-1,	-1,	59,	61,	33,	4,	-1,	-1,	-1,	-1,	35,	1,	55,	47,	10,	16,	-1,	-1,	-1,	-1,	-1,	-1,	-1|
-1,	11,	-1,	52,	-1,	8,	3,	-1,	6,	-1,	22,	-1,	-1,	-1,	59,	7,	-1,	49,	33,	26,	-1,	-1,	-1,	2,	27,	-1,	44,	18,	20,	34,	35,	-1,	-1,	-1,	63,	-1,	45,	57,	-1,	21,	-1,	51,	-1,	28,	17,	55,	-1,	9,	-1,	54,	-1,	14,	-1,	25,	-1,	-1,	24,	42,	-1,	-1,	-1,	-1,	-1,	39|
-1,	-1,	-1,	-1,	-1,	-1,	-1,	-1,	18,	53,	51,	60,	20,	57,	26,	-1,	34,	-1,	-1,	32,	27,	28,	-1,	64,	11,	52,	-1,	-1,	13,	-1,	36,	-1,	31,	-1,	-1,	35,	22,	30,	-1,	2,	23,	-1,	42,	63,	54,	-1,	-1,	8,	48,	4,	21,	49,	6,	-1,	-1,	-1,	61,	55,	-1,	7,	33,	9,	-1,	45|
-1,	-1,	41,	42,	9,	14,	57,	-1,	44,	-1,	32,	-1,	39,	25,	-1,	-1,	59,	-1,	-1,	18,	-1,	4,	-1,	-1,	-1,	60,	-1,	47,	61,	24,	55,	2,	-1,	19,	13,	12,	28,	48,	11,	27,	-1,	15,	21,	-1,	-1,	20,	-1,	22,	-1,	-1,	-1,	-1,	-1,	-1,	-1,	-1,	-1,	43,	-1,	52,	46,	63,	53,	8|
-1,	32,	-1,	-1,	-1,	40,	7,	-1,	42,	37,	23,	-1,	-1,	-1,	-1,	46,	5,	48,	8,	-1,	58,	57,	-1,	-1,	-1,	-1,	-1,	1,	-1,	14,	-1,	19,	-1,	20,	-1,	-1,	-1,	-1,	26,	-1,	6,	39,	56,	18,	-1,	-1,	50,	60,	-1,	53,	9,	17,	11,	44,	27,	59,	-1,	-1,	-1,	41,	25,	3,	62,	29|
13,	-1,	58,	33,	-1,	29,	-1,	-1,	-1,	-1,	31,	-1,	-1,	27,	1,	64,	-1,	7,	53,	44,	-1,	-1,	60,	40,	21,	-1,	9,	15,	41,	-1,	-1,	4,	6,	-1,	46,	-1,	10,	-1,	16,	-1,	19,	45,	-1,	-1,	35,	-1,	38,	-1,	-1,	36,	39,	37,	-1,	63,	3,	26,	-1,	28,	-1,	47,	-1,	50,	5,	-1|
20,	-1,	-1,	45,	-1,	-1,	-1,	-1,	61,	3,	-1,	-1,	-1,	-1,	-1,	-1,	-1,	55,	63,	47,	9,	62,	-1,	39,	50,	56,	5,	10,	29,	8,	7,	42,	-1,	-1,	-1,	-1,	17,	-1,	-1,	-1,	31,	-1,	41,	-1,	16,	52,	32,	48,	-1,	57,	-1,	-1,	-1,	-1,	-1,	33,	-1,	-1,	40,	-1,	18,	1,	13,	59|
-1,	63,	4,	-1,	-1,	-1,	-1,	-1,	52,	-1,	40,	14,	-1,	-1,	-1,	-1,	50,	29,	41,	-1,	-1,	-1,	25,	-1,	-1,	-1,	-1,	43,	-1,	-1,	-1,	-1,	-1,	-1,	-1,	-1,	38,	5,	39,	1,	-1,	-1,	-1,	-1,	-1,	10,	13,	27,	-1,	61,	42,	-1,	51,	-1,	-1,	24,	17,	-1,	-1,	-1,	-1,	-1,	60,	11|
31,	-1,	-1,	-1,	42,	-1,	-1,	-1,	-1,	41,	-1,	-1,	-1,	-1,	-1,	34,	-1,	-1,	52,	1,	18,	-1,	29,	-1,	-1,	-1,	55,	54,	5,	-1,	56,	-1,	-1,	10,	-1,	-1,	-1,	-1,	6,	17,	21,	-1,	-1,	9,	-1,	-1,	-1,	59,	-1,	-1,	8,	-1,	-1,	40,	-1,	-1,	45,	-1,	48,	37,	14,	19,	-1,	47|
-1,	16,	52,	51,	6,	-1,	-1,	3,	-1,	63,	45,	-1,	-1,	-1,	-1,	-1,	-1,	-1,	-1,	-1,	-1,	-1,	-1,	-1,	9,	-1,	-1,	-1,	-1,	27,	61,	12,	-1,	5,	-1,	29,	62,	8,	-1,	4,	-1,	-1,	-1,	-1,	-1,	-1,	37,	-1,	32,	-1,	-1,	-1,	55,	41,	-1,	64,	-1,	39,	-1,	13,	-1,	-1,	-1,	21|
35,	-1,	-1,	-1,	-1,	13,	-1,	24,	-1,	-1,	-1,	37,	42,	-1,	-1,	-1,	33,	-1,	43,	-1,	38,	7,	-1,	28,	-1,	-1,	-1,	16,	47,	-1,	25,	34,	12,	-1,	9,	44,	-1,	63,	-1,	22,	56,	-1,	30,	-1,	-1,	26,	-1,	-1,	4,	-1,	-1,	-1,	53,	-1,	17,	-1,	-1,	-1,	59,	58,	-1,	29,	-1,	40|
4,	-1,	30,	10,	-1,	62,	-1,	-1,	-1,	-1,	-1,	58,	-1,	9,	61,	-1,	48,	39,	-1,	-1,	31,	2,	36,	47,	18,	-1,	-1,	-1,	23,	21,	-1,	52,	-1,	64,	-1,	-1,	-1,	-1,	35,	57,	-1,	-1,	51,	60,	33,	13,	19,	-1,	6,	-1,	34,	27,	43,	12,	29,	1,	22,	-1,	8,	-1,	20,	15,	-1,	5|
26,	23,	34,	-1,	41,	21,	58,	48,	-1,	-1,	-1,	-1,	-1,	4,	36,	-1,	19,	-1,	57,	11,	-1,	-1,	63,	12,	24,	-1,	-1,	17,	-1,	-1,	-1,	-1,	-1,	-1,	-1,	-1,	-1,	39,	2,	-1,	52,	-1,	-1,	53,	8,	22,	-1,	-1,	61,	-1,	-1,	59,	-1,	-1,	-1,	-1,	35,	-1,	44,	9,	-1,	-1,	-1,	16|
5,	-1,	-1,	47,	49,	54,	33,	-1,	21,	1,	44,	12,	30,	10,	-1,	22,	56,	-1,	24,	13,	60,	-1,	-1,	-1,	8,	63,	-1,	29,	-1,	-1,	-1,	14,	-1,	28,	-1,	46,	16,	-1,	-1,	58,	-1,	-1,	-1,	4,	18,	-1,	25,	-1,	-1,	23,	31,	38,	-1,	-1,	7,	36,	3,	50,	34,	64,	43,	17,	-1,	57|
25,	12,	43,	-1,	60,	18,	-1,	32,	40,	6,	-1,	-1,	13,	19,	7,	-1,	64,	-1,	45,	-1,	-1,	34,	-1,	8,	44,	48,	35,	36,	-1,	38,	1,	49,	-1,	-1,	-1,	-1,	-1,	56,	-1,	37,	17,	-1,	62,	61,	-1,	-1,	-1,	-1,	-1,	-1,	33,	54,	2,	-1,	20,	21,	-1,	-1,	63,	-1,	-1,	-1,	52,	-1|
-1,	-1,	59,	-1,	1,	17,	37,	36,	-1,	56,	-1,	62,	-1,	-1,	-1,	-1,	16,	-1,	49,	61,	-1,	-1,	-1,	-1,	-1,	2,	28,	-1,	-1,	-1,	64,	-1,	21,	24,	54,	-1,	34,	33,	19,	-1,	58,	40,	-1,	-1,	48,	23,	57,	63,	-1,	60,	-1,	9,	-1,	-1,	-1,	22,	18,	-1,	-1,	-1,	42,	-1,	11,	27|
-1,	-1,	-1,	57,	48,	42,	-1,	23,	-1,	-1,	-1,	28,	-1,	-1,	-1,	20,	-1,	14,	-1,	4,	-1,	-1,	-1,	18,	-1,	-1,	46,	-1,	26,	-1,	-1,	-1,	38,	-1,	-1,	-1,	-1,	31,	-1,	16,	49,	-1,	58,	-1,	-1,	-1,	-1,	-1,	-1,	-1,	43,	-1,	34,	-1,	54,	53,	13,	-1,	32,	-1,	52,	2,	-1,	30|
6,	-1,	-1,	43,	-1,	15,	-1,	-1,	-1,	-1,	62,	54,	-1,	-1,	-1,	-1,	-1,	-1,	-1,	3,	56,	-1,	-1,	22,	61,	-1,	63,	-1,	-1,	-1,	53,	29,	45,	37,	20,	-1,	26,	-1,	-1,	-1,	-1,	35,	-1,	5,	60,	-1,	47,	-1,	-1,	-1,	40,	-1,	12,	17,	-1,	50,	-1,	-1,	41,	49,	-1,	25,	-1,	7|
59,	61,	-1,	-1,	-1,	31,	-1,	5,	-1,	-1,	18,	-1,	-1,	-1,	25,	-1,	-1,	17,	9,	-1,	-1,	-1,	-1,	-1,	-1,	-1,	-1,	7,	28,	-1,	47,	-1,	-1,	-1,	-1,	51,	8,	-1,	-1,	-1,	-1,	22,	39,	-1,	45,	29,	-1,	-1,	64,	10,	4,	3,	-1,	-1,	-1,	15,	-1,	-1,	-1,	-1,	-1,	6,	34,	56|
46,	-1,	7,	-1,	-1,	33,	-1,	-1,	-1,	50,	-1,	51,	-1,	-1,	-1,	-1,	38,	-1,	34,	-1,	-1,	36,	-1,	-1,	-1,	-1,	-1,	58,	30,	56,	-1,	-1,	29,	-1,	-1,	54,	-1,	-1,	10,	24,	-1,	57,	13,	-1,	-1,	-1,	-1,	17,	-1,	-1,	45,	18,	63,	21,	6,	-1,	12,	-1,	27,	-1,	28,	47,	42,	-1|
47,	-1,	44,	-1,	58,	11,	35,	56,	3,	-1,	12,	-1,	59,	-1,	17,	-1,	60,	-1,	23,	-1,	37,	-1,	-1,	10,	45,	1,	50,	-1,	-1,	2,	-1,	-1,	-1,	32,	-1,	-1,	43,	-1,	7,	-1,	-1,	52,	24,	20,	-1,	-1,	-1,	6,	38,	31,	-1,	33,	-1,	-1,	42,	-1,	4,	63,	15,	39,	-1,	21,	26,	-1|
49,	3,	-1,	40,	-1,	-1,	19,	-1,	10,	-1,	-1,	-1,	-1,	42,	-1,	9,	31,	33,	-1,	-1,	28,	-1,	24,	-1,	-1,	-1,	4,	8,	-1,	25,	-1,	18,	44,	17,	-1,	-1,	-1,	35,	-1,	41,	-1,	37,	63,	-1,	-1,	50,	-1,	62,	-1,	20,	61,	48,	-1,	52,	56,	39,	-1,	29,	55,	22,	-1,	-1,	59,	60|
36,	29,	-1,	-1,	12,	20,	1,	-1,	-1,	13,	60,	45,	5,	8,	34,	56,	2,	-1,	-1,	6,	39,	42,	7,	35,	41,	40,	38,	-1,	-1,	11,	44,	-1,	22,	-1,	-1,	28,	-1,	18,	-1,	52,	-1,	4,	-1,	21,	19,	48,	3,	-1,	55,	46,	27,	-1,	59,	-1,	-1,	57,	51,	-1,	-1,	-1,	50,	58,	24,	37|
-1,	38,	-1,	4,	28,	-1,	55,	-1,	58,	14,	47,	21,	32,	64,	27,	52,	-1,	13,	29,	63,	-1,	26,	45,	43,	51,	-1,	59,	-1,	17,	-1,	-1,	-1,	-1,	49,	-1,	39,	46,	-1,	-1,	-1,	-1,	-1,	-1,	-1,	30,	1,	-1,	23,	41,	35,	-1,	-1,	8,	24,	37,	7,	-1,	53,	-1,	31,	62,	16,	48,	61|
-1,	30,	42,	27,	21,	-1,	26,	33,	-1,	24,	1,	-1,	-1,	16,	9,	37,	57,	41,	-1,	-1,	3,	-1,	18,	15,	-1,	50,	34,	23,	45,	61,	-1,	13,	56,	-1,	10,	-1,	-1,	44,	-1,	43,	-1,	53,	-1,	14,	22,	63,	39,	5,	-1,	-1,	17,	64,	-1,	36,	-1,	19,	-1,	31,	-1,	-1,	-1,	62,	6,	-1|
63,	-1,	-1,	-1,	-1,	-1,	-1,	-1,	-1,	-1,	13,	39,	-1,	52,	4,	48,	-1,	-1,	-1,	-1,	29,	-1,	38,	-1,	-1,	5,	-1,	-1,	42,	60,	-1,	-1,	-1,	-1,	7,	26,	36,	-1,	61,	45,	15,	-1,	19,	50,	-1,	12,	33,	37,	1,	-1,	51,	-1,	-1,	-1,	-1,	34,	44,	49,	35,	-1,	-1,	-1,	21,	-1|
-1,	35,	54,	61,	40,	46,	-1,	-1,	34,	19,	-1,	6,	-1,	-1,	-1,	-1,	-1,	43,	-1,	-1,	24,	-1,	-1,	53,	-1,	25,	36,	41,	-1,	4,	18,	59,	-1,	-1,	-1,	63,	-1,	49,	14,	-1,	7,	-1,	9,	-1,	-1,	42,	-1,	-1,	16,	-1,	12,	13,	-1,	27,	-1,	47,	11,	-1,	1,	51,	22,	30,	-1,	-1|
11,	57,	12,	-1,	47,	-1,	-1,	-1,	-1,	31,	-1,	41,	-1,	-1,	54,	-1,	30,	56,	46,	39,	36,	-1,	23,	-1,	49,	-1,	-1,	-1,	40,	-1,	-1,	53,	62,	18,	-1,	-1,	4,	-1,	34,	5,	-1,	-1,	20,	29,	-1,	51,	28,	-1,	-1,	-1,	26,	8,	21,	-1,	9,	-1,	7,	-1,	-1,	17,	15,	27,	19,	-1|
-1,	-1,	3,	-1,	34,	-1,	-1,	62,	-1,	64,	-1,	-1,	-1,	-1,	-1,	61,	-1,	60,	13,	-1,	-1,	22,	5,	19,	55,	7,	14,	20,	-1,	-1,	-1,	8,	9,	-1,	2,	1,	6,	-1,	-1,	-1,	-1,	27,	16,	-1,	38,	45,	21,	44,	49,	11,	23,	-1,	-1,	43,	63,	52,	-1,	-1,	42,	4,	-1,	41,	39,	-1|
-1,	2,	-1,	1,	14,	-1,	16,	49,	27,	-1,	36,	-1,	10,	-1,	5,	-1,	17,	-1,	7,	9,	-1,	6,	51,	-1,	-1,	29,	19,	-1,	48,	-1,	30,	47,	8,	53,	-1,	-1,	-1,	13,	-1,	-1,	-1,	-1,	54,	-1,	-1,	-1,	26,	61,	-1,	39,	3,	41,	28,	18,	-1,	42,	55,	52,	-1,	-1,	-1,	32,	38,	43|
19,	31,	-1,	7,	24,	-1,	17,	-1,	-1,	49,	58,	2,	-1,	33,	-1,	50,	-1,	-1,	61,	27,	11,	-1,	-1,	-1,	-1,	51,	15,	57,	-1,	-1,	10,	62,	47,	39,	21,	-1,	-1,	16,	29,	-1,	1,	48,	-1,	3,	-1,	40,	-1,	43,	53,	-1,	30,	-1,	-1,	14,	-1,	-1,	-1,	-1,	-1,	18,	-1,	-1,	8,	-1|
43,	-1,	23,	-1,	56,	38,	-1,	39,	30,	-1,	-1,	42,	-1,	-1,	44,	8,	40,	-1,	-1,	25,	48,	54,	1,	63,	16,	26,	6,	-1,	9,	32,	28,	-1,	-1,	-1,	50,	15,	27,	-1,	17,	64,	-1,	-1,	18,	-1,	46,	11,	-1,	2,	10,	-1,	-1,	-1,	29,	-1,	5,	-1,	47,	-1,	53,	-1,	-1,	-1,	61,	-1|];
