benchmarks_LEQ/INST_64x64/50/inst64x64_50_11.txt
8
1
51	36	-1	20	-1	-1	42	-1	-1	43	-1	-1	-1	-1	-1	10	32	-1	54	28	-1	38	-1	-1	3	9	27	55	56	57	58	31	60	-1	5	-1	-1	-1	-1	48	4	61	7	-1	14	30	49	45	-1	-1	62	39	-1	-1	-1	-1	-1	40	-1	-1	34	-1	12	24
17	-1	-1	56	-1	-1	22	-1	-1	20	-1	35	-1	-1	-1	-1	13	16	48	8	42	-1	50	41	-1	49	61	4	-1	47	43	-1	-1	-1	37	-1	64	-1	-1	59	-1	-1	29	-1	-1	36	53	-1	27	52	63	32	54	-1	-1	-1	58	-1	-1	19	-1	39	30	3
52	50	47	35	-1	-1	6	-1	-1	-1	-1	61	45	-1	-1	-1	44	24	-1	-1	33	10	55	7	40	-1	-1	-1	-1	-1	2	-1	49	27	-1	14	63	62	-1	34	-1	-1	3	41	58	31	-1	38	56	64	-1	-1	18	-1	-1	-1	-1	1	-1	16	-1	42	29	-1
-1	-1	-1	54	-1	45	13	1	-1	-1	11	-1	2	-1	-1	-1	27	20	26	-1	15	-1	57	51	52	-1	-1	-1	-1	5	62	-1	10	56	-1	30	19	29	40	-1	-1	18	-1	39	-1	44	6	21	3	-1	41	34	38	-1	53	12	-1	-1	43	-1	55	48	25	49
-1	-1	24	12	-1	10	29	-1	-1	32	30	44	-1	-1	-1	6	-1	61	39	-1	-1	-1	14	49	-1	20	18	34	63	-1	-1	50	-1	1	-1	-1	-1	-1	41	-1	25	-1	-1	51	-1	43	-1	-1	60	-1	57	-1	7	-1	-1	-1	-1	-1	-1	-1	35	-1	54	38
-1	-1	48	23	39	-1	18	-1	49	47	42	-1	-1	13	-1	-1	-1	30	56	-1	-1	63	-1	-1	-1	-1	7	-1	-1	-1	16	26	-1	43	36	17	-1	45	28	-1	50	-1	60	-1	40	19	-1	54	-1	51	-1	29	-1	-1	61	14	-1	9	11	-1	-1	53	-1	-1
-1	5	-1	-1	-1	41	-1	-1	55	-1	-1	3	-1	-1	-1	-1	-1	-1	-1	17	-1	52	4	29	-1	28	-1	39	32	-1	-1	44	42	26	-1	58	54	51	18	11	16	-1	10	-1	37	-1	23	-1	-1	-1	50	46	31	-1	8	30	-1	59	-1	63	-1	-1	-1	-1
3	-1	53	-1	-1	16	-1	-1	-1	36	54	-1	-1	37	21	-1	11	35	25	-1	-1	64	43	62	29	-1	42	-1	10	59	-1	-1	-1	-1	52	-1	12	-1	15	50	-1	-1	-1	8	1	-1	63	-1	5	-1	-1	-1	4	-1	-1	-1	56	-1	-1	-1	44	51	-1	-1
-1	18	-1	-1	57	58	-1	11	-1	8	-1	-1	37	63	20	13	39	-1	-1	55	43	-1	28	-1	7	-1	-1	25	-1	51	12	56	-1	48	44	-1	53	26	62	-1	30	42	49	64	27	21	31	36	-1	41	54	19	60	33	4	17	-1	32	-1	-1	-1	40	47	-1
-1	-1	19	6	23	-1	59	-1	9	12	-1	26	57	39	-1	15	-1	53	22	-1	46	-1	37	-1	34	-1	-1	-1	52	3	-1	38	-1	29	-1	41	1	54	-1	56	-1	-1	48	62	13	-1	-1	-1	43	-1	-1	20	-1	16	49	5	60	-1	-1	55	27	7	-1	25
44	60	-1	14	-1	39	-1	-1	35	-1	29	34	51	6	52	24	54	-1	-1	48	-1	-1	8	56	-1	-1	31	-1	-1	42	-1	-1	-1	21	40	-1	50	-1	-1	10	61	63	-1	46	57	7	-1	-1	11	-1	-1	-1	-1	1	28	-1	49	-1	20	-1	3	43	33	-1
-1	33	-1	25	-1	7	-1	2	-1	48	5	-1	-1	36	-1	45	-1	-1	-1	-1	64	-1	42	60	15	54	-1	53	49	18	-1	-1	-1	-1	-1	32	-1	-1	57	-1	55	-1	34	-1	-1	8	11	-1	-1	-1	38	40	37	47	-1	13	-1	35	-1	29	61	-1	16	17
12	-1	55	-1	52	48	-1	-1	32	-1	-1	-1	11	40	58	62	49	-1	30	23	57	-1	26	1	17	59	45	44	60	13	37	46	63	14	-1	4	-1	42	33	15	29	-1	43	-1	5	3	-1	-1	-1	6	10	-1	9	-1	-1	-1	-1	18	-1	-1	-1	-1	50	-1
-1	-1	-1	-1	13	-1	-1	10	28	-1	-1	1	27	49	-1	31	-1	18	-1	-1	-1	-1	6	-1	-1	39	2	19	35	26	-1	-1	36	8	-1	-1	-1	-1	-1	9	60	-1	-1	32	-1	16	24	50	-1	42	29	-1	-1	-1	12	-1	57	54	-1	15	-1	-1	58	62
61	-1	46	49	-1	-1	-1	-1	-1	23	43	55	-1	44	42	59	-1	36	-1	45	-1	29	21	13	48	32	10	5	22	28	20	9	-1	-1	-1	-1	30	11	27	47	-1	-1	38	-1	-1	15	-1	4	-1	26	24	57	14	50	52	-1	-1	6	2	1	-1	-1	51	19
41	-1	35	-1	51	-1	40	31	-1	61	-1	-1	-1	50	-1	47	-1	27	-1	33	12	58	-1	59	57	4	43	30	36	-1	-1	24	-1	46	-1	20	49	-1	-1	-1	-1	25	22	45	-1	-1	2	-1	63	56	18	-1	15	62	-1	8	-1	13	37	23	39	-1	10	42
40	-1	-1	30	-1	-1	-1	-1	13	42	28	-1	-1	-1	-1	63	-1	-1	59	58	-1	39	-1	-1	5	-1	21	-1	-1	49	34	41	61	15	-1	23	-1	47	24	60	-1	9	-1	1	36	-1	29	-1	54	-1	-1	52	-1	-1	22	18	27	-1	-1	-1	4	-1	-1	50
-1	-1	-1	62	-1	-1	31	52	45	-1	-1	-1	4	-1	-1	36	-1	-1	-1	29	8	-1	-1	9	20	-1	40	-1	50	-1	6	11	-1	63	34	56	14	-1	51	7	39	21	55	-1	26	38	16	41	59	-1	2	60	42	-1	58	-1	43	-1	24	57	30	-1	-1	15
-1	-1	11	15	-1	-1	14	-1	-1	-1	35	-1	-1	47	-1	-1	22	-1	28	19	50	5	-1	21	-1	-1	13	52	27	16	-1	39	26	-1	42	57	44	-1	-1	46	20	54	-1	-1	49	-1	8	18	25	7	-1	-1	-1	-1	64	-1	40	45	-1	62	-1	37	56	-1
-1	59	13	-1	-1	35	41	-1	-1	39	56	-1	38	-1	-1	-1	-1	-1	47	30	-1	31	-1	26	-1	22	-1	-1	-1	-1	-1	57	64	55	6	10	18	-1	-1	3	43	60	2	42	-1	-1	12	-1	-1	29	1	4	-1	53	-1	-1	-1	25	46	44	-1	36	-1	-1
-1	-1	22	5	-1	-1	36	26	25	-1	61	15	12	59	-1	54	-1	-1	-1	-1	-1	-1	35	-1	-1	-1	-1	-1	-1	55	-1	17	-1	9	-1	19	-1	-1	-1	62	11	47	-1	-1	-1	-1	-1	33	-1	-1	-1	-1	-1	-1	21	-1	42	-1	18	-1	-1	-1	20	13
39	-1	6	-1	-1	12	-1	-1	26	-1	-1	-1	-1	41	-1	14	7	-1	-1	20	-1	-1	-1	-1	59	-1	47	-1	-1	-1	19	-1	-1	25	27	-1	-1	4	-1	49	40	50	-1	-1	-1	57	-1	-1	-1	-1	-1	-1	62	31	-1	16	-1	64	23	61	21	11	-1	1
-1	-1	-1	21	50	1	-1	4	-1	-1	-1	-1	-1	22	-1	-1	18	52	42	24	40	-1	-1	55	30	36	51	-1	-1	9	-1	-1	-1	-1	8	45	37	32	53	54	59	3	-1	31	15	62	-1	46	26	47	-1	-1	19	-1	-1	-1	-1	17	28	10	-1	14	41	-1
-1	-1	29	9	-1	-1	47	53	-1	-1	50	-1	-1	55	18	-1	-1	11	-1	-1	25	13	-1	36	60	12	-1	-1	43	-1	-1	1	-1	-1	-1	-1	-1	-1	20	-1	-1	-1	-1	-1	-1	-1	-1	-1	-1	-1	6	10	39	61	57	41	2	22	-1	-1	-1	59	-1	-1
53	25	18	34	-1	24	62	-1	48	59	-1	-1	56	7	-1	28	-1	-1	12	2	4	-1	-1	20	-1	27	-1	63	11	40	-1	-1	-1	-1	-1	-1	-1	21	45	19	-1	-1	-1	-1	52	46	-1	10	42	-1	-1	-1	-1	29	44	-1	36	3	6	-1	-1	13	-1	-1
-1	-1	-1	31	3	-1	-1	54	60	52	-1	-1	-1	-1	13	-1	-1	50	-1	16	-1	-1	27	-1	-1	-1	-1	-1	-1	29	-1	-1	-1	-1	-1	22	42	12	4	23	36	-1	-1	49	-1	58	-1	15	57	-1	64	25	5	46	-1	-1	-1	24	39	-1	17	10	-1	-1
48	51	57	-1	-1	-1	-1	47	-1	4	34	11	49	26	16	27	-1	-1	14	-1	35	40	-1	3	10	55	-1	13	-1	52	42	6	-1	-1	18	-1	-1	28	-1	-1	45	-1	17	-1	-1	-1	56	-1	-1	30	-1	1	-1	-1	38	-1	-1	21	-1	-1	-1	-1	-1	-1
-1	52	-1	63	-1	60	4	-1	57	21	24	40	-1	20	-1	-1	-1	-1	-1	22	17	-1	-1	25	-1	-1	-1	-1	-1	-1	45	-1	-1	2	-1	-1	-1	14	-1	-1	-1	31	6	23	42	47	-1	-1	19	-1	-1	-1	-1	-1	15	54	-1	-1	-1	-1	49	35	-1	-1
-1	-1	10	19	37	-1	-1	43	-1	58	9	-1	-1	3	-1	-1	-1	-1	51	42	-1	24	-1	46	-1	-1	41	-1	8	7	-1	35	-1	-1	64	-1	56	-1	47	-1	22	55	28	-1	2	-1	-1	11	39	-1	49	-1	-1	-1	-1	4	-1	57	-1	-1	-1	-1	-1	52
7	-1	36	-1	-1	-1	-1	-1	-1	-1	6	-1	-1	2	22	33	-1	54	11	57	-1	21	-1	45	28	19	-1	-1	-1	-1	39	43	37	13	-1	62	59	40	49	-1	-1	-1	-1	16	-1	-1	48	34	51	12	52	-1	27	-1	18	-1	-1	60	-1	30	53	-1	15	-1
-1	46	16	-1	-1	-1	49	13	36	55	39	32	-1	-1	62	-1	10	19	-1	-1	5	59	30	-1	54	-1	12	26	-1	-1	-1	61	-1	50	-1	-1	15	-1	-1	-1	-1	14	-1	-1	64	41	-1	40	7	-1	-1	53	-1	34	-1	56	-1	-1	47	-1	58	-1	45	9
14	-1	-1	-1	55	61	12	21	54	-1	64	47	-1	45	19	42	-1	-1	32	7	-1	33	-1	48	-1	-1	16	-1	-1	15	38	-1	52	34	24	60	-1	-1	5	-1	53	20	-1	-1	9	27	44	29	-1	-1	36	2	-1	-1	11	23	63	-1	25	8	-1	-1	40	-1
-1	17	-1	26	-1	37	23	25	-1	11	49	63	-1	5	45	-1	-1	-1	3	56	-1	43	-1	-1	6	38	54	-1	-1	58	32	-1	-1	-1	29	-1	24	-1	-1	-1	-1	44	-1	-1	61	-1	4	53	8	-1	-1	-1	-1	-1	-1	10	16	-1	-1	-1	-1	22	-1	34
-1	-1	-1	-1	43	8	3	-1	6	30	22	13	-1	-1	59	7	36	-1	33	26	61	-1	-1	2	-1	-1	44	-1	20	34	-1	37	-1	47	-1	50	45	57	64	21	5	-1	-1	28	-1	-1	1	9	-1	54	32	14	16	-1	19	-1	-1	-1	-1	-1	38	-1	-1	39
10	-1	39	-1	-1	59	-1	-1	18	53	51	60	20	57	26	-1	-1	1	38	-1	-1	-1	19	-1	11	-1	-1	40	-1	12	36	-1	-1	62	-1	-1	22	30	-1	2	-1	43	42	-1	-1	-1	-1	-1	48	4	21	49	6	15	-1	29	-1	55	14	7	-1	9	-1	45
1	49	41	42	9	-1	-1	64	-1	-1	32	-1	39	-1	-1	-1	-1	51	37	18	-1	4	17	-1	-1	-1	3	47	-1	24	55	-1	-1	-1	-1	-1	28	-1	11	27	62	15	-1	36	29	-1	7	-1	-1	34	-1	45	-1	5	50	38	6	43	30	-1	46	63	53	8
2	32	-1	36	-1	-1	7	-1	-1	-1	-1	38	43	-1	47	-1	5	-1	8	35	58	-1	-1	24	31	45	-1	1	-1	14	63	-1	-1	-1	-1	-1	55	-1	26	-1	6	39	-1	-1	34	64	50	60	13	53	9	17	11	44	-1	-1	-1	-1	-1	41	-1	3	-1	-1
-1	-1	-1	33	54	29	34	61	-1	-1	-1	-1	-1	-1	-1	64	-1	7	53	44	14	12	60	-1	-1	57	-1	15	41	-1	-1	4	-1	-1	-1	8	10	-1	16	-1	19	-1	25	-1	35	-1	-1	-1	-1	-1	-1	37	-1	-1	-1	-1	32	28	51	47	-1	50	-1	2
-1	-1	-1	45	-1	53	-1	-1	-1	3	-1	-1	36	34	-1	-1	46	-1	-1	47	9	-1	-1	39	50	-1	-1	10	-1	-1	-1	-1	-1	-1	-1	-1	-1	15	-1	-1	31	24	-1	26	16	-1	-1	48	-1	-1	-1	43	23	64	-1	-1	54	58	-1	35	-1	1	-1	59
22	-1	-1	-1	35	-1	-1	-1	-1	-1	-1	-1	9	21	8	55	-1	-1	-1	15	-1	-1	-1	6	-1	62	64	-1	-1	-1	-1	33	-1	58	32	-1	38	-1	-1	-1	3	-1	57	-1	12	-1	-1	27	20	61	-1	-1	51	7	31	-1	17	-1	-1	-1	26	49	-1	11
-1	-1	63	-1	42	2	53	-1	-1	-1	-1	-1	-1	43	51	-1	23	58	52	-1	-1	-1	-1	-1	4	15	55	-1	5	33	56	30	-1	-1	-1	-1	-1	-1	-1	-1	21	46	12	-1	20	-1	36	-1	-1	-1	8	44	-1	-1	16	62	-1	-1	-1	37	14	19	32	47
-1	16	52	-1	6	57	11	-1	-1	-1	-1	-1	-1	54	48	-1	14	-1	-1	40	-1	-1	-1	-1	9	-1	22	59	53	27	61	-1	18	5	-1	-1	-1	8	43	-1	-1	-1	-1	34	24	2	-1	28	-1	-1	46	-1	-1	-1	35	-1	-1	39	-1	13	36	-1	49	21
-1	-1	-1	-1	-1	-1	27	24	-1	15	8	37	-1	18	-1	60	33	-1	43	-1	38	7	62	-1	19	46	39	16	-1	-1	25	-1	12	52	-1	-1	-1	-1	-1	-1	56	-1	30	54	55	26	45	1	4	3	-1	-1	53	-1	-1	-1	-1	-1	-1	58	-1	-1	-1	40
-1	45	-1	-1	-1	62	28	-1	24	17	-1	58	53	9	-1	3	-1	39	50	54	-1	2	-1	47	18	-1	-1	37	-1	-1	-1	52	7	-1	14	40	-1	59	-1	57	42	-1	-1	-1	-1	-1	19	49	6	-1	34	27	-1	12	29	-1	-1	56	-1	-1	-1	15	-1	-1
-1	23	34	46	-1	-1	-1	-1	29	28	20	-1	33	-1	36	-1	-1	-1	57	11	-1	-1	63	12	24	42	60	-1	6	-1	-1	7	27	-1	30	-1	-1	-1	2	-1	-1	64	14	53	8	-1	15	31	61	-1	-1	-1	50	56	-1	49	35	-1	-1	9	54	-1	-1	16
-1	9	-1	47	-1	-1	-1	19	-1	1	44	12	30	-1	-1	22	56	-1	24	13	-1	-1	59	-1	8	63	-1	29	62	41	51	-1	15	28	-1	-1	-1	55	-1	-1	27	-1	11	4	18	-1	25	35	-1	23	-1	-1	45	-1	-1	-1	-1	50	-1	-1	43	-1	-1	-1
-1	12	43	39	60	18	-1	-1	-1	6	27	59	13	19	-1	-1	64	22	45	46	-1	-1	9	8	-1	48	-1	36	-1	38	1	49	50	42	26	-1	-1	-1	23	-1	-1	-1	-1	61	-1	5	10	3	-1	14	-1	-1	2	58	20	21	41	-1	63	53	-1	-1	-1	-1
-1	8	-1	55	1	17	37	36	38	-1	-1	-1	-1	-1	-1	-1	-1	5	-1	61	30	-1	-1	-1	-1	-1	28	-1	3	45	64	-1	21	24	54	53	34	33	-1	-1	58	-1	-1	-1	48	-1	-1	-1	-1	-1	-1	9	25	-1	51	-1	18	12	7	-1	-1	-1	-1	27
-1	22	21	-1	-1	-1	-1	23	-1	33	37	28	-1	61	55	-1	-1	-1	-1	-1	59	1	-1	18	-1	10	46	-1	26	-1	27	3	-1	-1	-1	-1	-1	31	50	-1	-1	36	-1	7	44	25	51	-1	-1	5	-1	-1	-1	-1	54	53	-1	-1	-1	-1	52	2	17	-1
6	-1	27	43	-1	-1	-1	34	4	-1	-1	-1	-1	-1	-1	-1	52	57	55	3	56	-1	-1	22	-1	-1	63	-1	33	64	53	-1	-1	-1	20	-1	-1	-1	-1	-1	28	-1	31	-1	-1	18	-1	-1	-1	-1	40	51	12	-1	-1	50	-1	-1	-1	49	8	25	-1	7
-1	61	14	37	63	-1	-1	5	-1	-1	18	49	-1	-1	-1	57	-1	17	-1	-1	-1	30	-1	50	-1	-1	48	-1	28	-1	-1	-1	-1	11	62	-1	8	-1	12	-1	-1	22	-1	27	-1	-1	-1	-1	-1	-1	4	-1	-1	-1	60	15	33	-1	38	40	19	6	34	56
-1	26	-1	-1	-1	33	64	41	-1	50	-1	-1	-1	-1	-1	39	38	8	34	-1	-1	-1	-1	61	62	37	52	-1	30	56	-1	-1	29	4	-1	-1	-1	9	-1	24	-1	57	13	55	-1	59	14	17	-1	-1	45	-1	-1	21	-1	-1	12	20	27	3	28	-1	42	35
-1	62	44	-1	58	11	35	56	3	40	-1	22	-1	-1	17	-1	-1	-1	-1	51	-1	-1	-1	-1	-1	1	50	14	19	-1	-1	-1	-1	32	57	-1	43	34	7	-1	-1	52	24	20	-1	-1	-1	-1	-1	-1	13	33	-1	-1	42	25	4	-1	-1	39	-1	-1	-1	18
49	-1	-1	40	53	30	19	-1	10	7	2	36	-1	42	46	9	-1	-1	5	64	-1	11	24	32	-1	13	-1	-1	-1	-1	54	18	44	-1	15	-1	21	35	-1	41	26	-1	63	38	-1	50	34	-1	-1	20	-1	-1	-1	52	56	39	-1	-1	55	-1	-1	-1	59	60
36	29	17	-1	12	-1	1	-1	-1	13	-1	45	-1	-1	34	-1	-1	47	62	-1	-1	42	-1	-1	41	-1	-1	-1	-1	-1	-1	-1	22	61	-1	28	-1	18	-1	52	10	4	33	21	19	48	-1	64	-1	46	-1	-1	59	-1	26	-1	-1	-1	-1	-1	-1	58	-1	-1
-1	38	2	-1	28	-1	-1	18	-1	-1	47	-1	-1	64	27	-1	25	13	29	63	-1	26	45	-1	51	34	-1	6	-1	-1	-1	20	33	49	-1	-1	46	60	56	-1	-1	12	15	-1	30	1	-1	23	41	-1	19	-1	8	24	-1	7	-1	-1	10	-1	62	-1	-1	-1
8	30	42	-1	21	-1	-1	33	51	24	-1	7	28	16	9	37	-1	-1	4	12	-1	49	-1	15	-1	-1	-1	-1	45	61	52	-1	56	-1	10	-1	-1	-1	54	-1	-1	-1	32	14	-1	-1	39	5	35	59	-1	-1	58	-1	2	19	25	31	29	46	40	-1	6	20
-1	-1	32	-1	-1	-1	25	20	62	22	13	39	3	-1	-1	-1	8	10	58	14	-1	-1	38	16	43	5	17	-1	42	-1	-1	-1	40	30	-1	26	36	41	61	-1	-1	59	-1	-1	6	-1	33	37	-1	-1	-1	-1	-1	-1	-1	34	44	-1	-1	-1	-1	-1	-1	-1
50	-1	54	-1	40	-1	-1	-1	34	-1	15	-1	-1	60	56	-1	28	-1	2	-1	24	20	-1	-1	-1	25	36	41	-1	-1	18	-1	-1	-1	-1	63	-1	49	14	-1	7	-1	9	17	-1	-1	-1	55	-1	45	12	13	33	27	48	-1	-1	5	-1	51	-1	30	37	-1
-1	57	12	48	47	-1	45	6	-1	-1	-1	-1	-1	32	-1	38	-1	-1	46	39	-1	55	-1	-1	-1	-1	-1	2	40	44	24	53	62	-1	-1	42	4	-1	-1	-1	-1	-1	20	29	-1	51	-1	58	-1	-1	-1	-1	21	60	9	-1	-1	-1	-1	-1	-1	-1	19	14
-1	15	-1	59	-1	36	10	62	47	-1	17	18	25	-1	29	-1	-1	-1	-1	-1	32	22	-1	-1	-1	7	-1	20	54	37	-1	8	9	-1	2	1	6	24	-1	12	-1	-1	16	-1	-1	45	21	44	-1	11	-1	-1	40	43	63	-1	28	26	42	-1	-1	-1	-1	48
-1	-1	37	-1	14	4	-1	49	27	57	-1	46	10	-1	-1	40	-1	-1	-1	-1	21	6	-1	44	-1	29	19	12	-1	-1	30	47	8	-1	33	-1	-1	-1	-1	-1	24	34	-1	-1	-1	60	26	-1	15	39	-1	-1	28	18	62	-1	-1	52	58	-1	-1	-1	38	-1
19	-1	5	7	-1	22	17	-1	-1	-1	58	2	-1	33	-1	50	45	26	61	-1	-1	37	64	-1	56	51	15	57	46	-1	-1	-1	47	-1	21	55	52	16	-1	-1	-1	-1	36	3	4	40	41	-1	53	-1	-1	6	-1	-1	25	-1	-1	34	-1	18	13	-1	8	63
43	41	-1	-1	56	-1	-1	39	-1	45	59	-1	55	14	-1	-1	-1	-1	-1	25	48	-1	1	63	-1	26	-1	3	9	-1	28	21	-1	22	-1	-1	-1	-1	-1	64	35	49	-1	52	46	-1	62	2	-1	-1	-1	-1	-1	4	5	-1	-1	36	-1	-1	57	-1	61	33
64 
28 57 42 35
22 21 11 38
62 51 30 45
24 17 39 12
18 10 16 62
53 48 54 13
52 3 17 5
31 40 35 48
58 6 62 20
22 30 18 11
14 61 50 16
19 52 33 61
44 46 64 4
16 46 49 18
42 18 29 15
40 10 20 1
38 30 8 31
58 5 52 52
26 42 27 57
17 12 6 51
45 6 6 49
4 9 62 25
53 19 3 54
47 61 63 5
13 18 30 12
17 60 38 56
55 51 60 62
41 50 33 28
50 32 53 16
22 39 33 24
58 31 61 52
46 46 25 61
20 5 26 28
35 17 28 29
62 40 26 56
40 60 62 11
15 2 20 9
46 52 44 8
32 2 8 9
45 31 29 2
27 53 30 17
59 46 22 28
54 45 7 7
36 9 56 21
9 1 8 59
30 64 35 8
35 2 53 1
14 53 54 52
39 36 7 3
1 15 27 45
24 64 39 8
12 20 48 11
1 11 15 57
37 33 60 15
5 8 53 40
47 38 7 46
17 24 48 47
25 8 5 52
63 57 11 60
40 63 29 31
43 3 9 26
5 45 47 43
35 44 39 19
16 38 11 53
